WARNING: for repeatability, setting FPU to use double precision
============================[ Problem Statistics ]=============================
|                                                                             |
|  Number of variables:        250679                                         |
|  Number of clauses:          807738                                         |
|  Parse time:                   0.19 s                                       |
|                                                                             |
c ============================[ Search Statistics ]==============================
c | Conflicts |          ORIGINAL         |          LEARNT          | Progress |
c |           |    Vars  Clauses Literals |    Limit  Clauses Lit/Cl |          |
c ===============================================================================
c Switched to VSIDS.
c Switched to LRB.
c Switched to VSIDS.
c Switched to LRB.
c Switched to VSIDS.
c Switched to LRB.
c Switched to VSIDS.
c Switched to LRB.
c Switched to VSIDS.
c Switched to LRB.
c Switched to VSIDS.
c Switched to LRB.
c Switched to VSIDS.
c Switched to LRB.
c Switched to VSIDS.
c Switched to LRB.
c Switched to VSIDS.
c Switched to LRB.
c ===============================================================================
restarts                  : 7963
conflicts                 : 882482         (2092 /sec)
decisions                 : 407092565      (0.00 % random) (964934 /sec)
propagations              : 1653136522     (3918440 /sec)
conflict literals         : 78505505       (7.36 % deleted)

conflicts w/ DIP found    : 731913         (82.94 % of conflicts)
conflicts w/ dangerous DIP: 0              (0.00 % of conflicts)
conflicts w/ DIP-learning : 625            (0.07 % of conflicts)
decisions on ext vars     : 3828           (0.00 % of decisions)
total ext vars            : 151         
tried delete ext vars     : 2           
deleted ext vars          : 2           
max ext vars              : 149         

Memory used               : 258.00 MB
CPU time                  : 421.886 s
DIP computation time      : 7.94237 s (1.88 % of total time)
ER_sel time               : 1.34277 s
ER_add time               : 0.00116 s
ER_delC time              : 0 s
ER_delV time              : 0.000622 s
ER_sub time               : 1.70026 s
ER_stat time              : 0 s

SATISFIABLE
